Route #1: 0 25 11 13 22 42 12 23 1 5 0
Route #2: 0 27 30 3 6 31 28 14 21 20 0
Route #3: 0 18 2 8 36 39 9 0
Route #4: 0 15 37 24 29 32 40 0
Route #5: 0 19 10 38 16 7 34 17 26 0
Route #6: 0 33 41 35 4 0
Cost 1070:
